(set-logic QF_S)
(declare-fun _var_0xINPUT_151200_() String)
(declare-fun __woorpje_diseq_pref0_() String)
(declare-fun __woorpje_diseq_suf_l0_() String)
(declare-fun __woorpje_diseq_suf_r0_() String)
(assert (=(str.++ _var_0xINPUT_151200_  "")(str.++ __woorpje_diseq_pref0_  "a" __woorpje_diseq_suf_l0_  "")) )
(assert (=(str.++  "W4XARxaT2A" "")(str.++ __woorpje_diseq_pref0_  "2" __woorpje_diseq_suf_r0_  "")) )
(check-sat)
